datasets/2-dimensional/CL_10_24_07.vbp
2
100 100 
24
26 49 30
47 43 72
44 47 4
28 46 88
46 5 54
26 44 64
43 31 90
43 26 26
42 40 94
40 42 28
41 32 72
40 36 49
33 39 54
39 30 19
20 38 28
36 35 61
34 36 84
32 35 23
23 33 67
31 30 53
28 29 54
25 21 16
20 18 9
13 15 54
