datasets/2-dimensional/CL_10_24_07.txt
100 100 
0 30 26 49 
1 72 47 43 
2 4 44 47 
3 88 28 46 
4 54 46 5 
5 64 26 44 
6 90 43 31 
7 26 43 26 
8 94 42 40 
9 28 40 42 
10 72 41 32 
11 49 40 36 
12 54 33 39 
13 19 39 30 
14 28 20 38 
15 61 36 35 
16 84 34 36 
17 23 32 35 
18 67 23 33 
19 53 31 30 
20 54 28 29 
21 16 25 21 
22 9 20 18 
23 54 13 15 
